presolving:
(round 1, fast)       151 del vars, 0 del conss, 0 add conss, 0 chg bounds, 0 chg sides, 0 chg coeffs, 0 upgd conss, 0 impls, 300 clqs
(round 2, exhaustive) 151 del vars, 0 del conss, 0 add conss, 0 chg bounds, 0 chg sides, 0 chg coeffs, 300 upgd conss, 0 impls, 300 clqs
   (2.0s) probing: 51/22350 (0.2%) - 0 fixings, 0 aggregations, 0 implications, 0 bound changes
   (2.0s) probing aborted: 50/50 successive totally useless probings
   Deactivated symmetry handling methods, since SCIP was built without symmetry detector (SYM=none).
presolving (3 rounds: 3 fast, 2 medium, 2 exhaustive):
 151 deleted vars, 0 deleted constraints, 0 added constraints, 0 tightened bounds, 0 added holes, 0 changed sides, 0 changed coefficients
 0 implications, 300 cliques
presolved problem has 22499 variables (22350 bin, 0 int, 0 impl, 149 cont) and 22352 constraints
    300 constraints of type <setppc>
  22052 constraints of type <linear>
Presolving Time: 1.00

 time | node  | left  |LP iter|LP it/n|mem/heur|mdpt |vars |cons |rows |cuts |sepa|confs|strbr|  dualbound   | primalbound  |  gap   | compl. 
p 6.0s|     1 |     0 |    92 |     - | vbounds|   0 |  22k|  22k|  22k|   0 |  0 |   5 |   0 | 0.000000e+00 | 5.286758e+04 |    Inf | unknown
 13.0s|     1 |     0 |   544 |     - |   221M |   0 |  22k|  22k|  22k|   0 |  0 |   5 |   0 | 5.569982e+03 | 5.286758e+04 | 849.15%| unknown
 14.0s|     1 |     0 |   709 |     - |   227M |   0 |  22k|  22k|  22k| 123 |  1 |   5 |   0 | 5.861753e+03 | 5.286758e+04 | 801.91%| unknown
 15.0s|     1 |     0 |   803 |     - |   231M |   0 |  22k|  22k|  22k| 190 |  2 |   5 |   0 | 5.916679e+03 | 5.286758e+04 | 793.53%| unknown
 16.0s|     1 |     0 |   868 |     - |   236M |   0 |  22k|  22k|  22k| 221 |  3 |   5 |   0 | 6.238719e+03 | 5.286758e+04 | 747.41%| unknown
 16.0s|     1 |     0 |   888 |     - |   239M |   0 |  22k|  22k|  22k| 233 |  4 |   5 |   0 | 6.257808e+03 | 5.286758e+04 | 744.83%| unknown
 17.0s|     1 |     0 |   933 |     - |   242M |   0 |  22k|  22k|  22k| 258 |  5 |   5 |   0 | 6.272543e+03 | 5.286758e+04 | 742.84%| unknown
 17.0s|     1 |     0 |   961 |     - |   246M |   0 |  22k|  22k|  22k| 275 |  6 |   5 |   0 | 6.272543e+03 | 5.286758e+04 | 742.84%| unknown
 18.0s|     1 |     0 |   999 |     - |   249M |   0 |  22k|  22k|  22k| 297 |  7 |   5 |   0 | 6.273007e+03 | 5.286758e+04 | 742.78%| unknown
 18.0s|     1 |     0 |  1019 |     - |   253M |   0 |  22k|  22k|  22k| 311 |  8 |   5 |   0 | 6.273007e+03 | 5.286758e+04 | 742.78%| unknown
 19.0s|     1 |     0 |  1062 |     - |   255M |   0 |  22k|  22k|  22k| 331 |  9 |   5 |   0 | 6.284467e+03 | 5.286758e+04 | 741.24%| unknown
 19.0s|     1 |     0 |  1108 |     - |   258M |   0 |  22k|  22k|  22k| 354 | 10 |   5 |   0 | 6.295594e+03 | 5.286758e+04 | 739.76%| unknown
 20.0s|     1 |     0 |  1125 |     - |   260M |   0 |  22k|  22k|  22k| 362 | 11 |   5 |   0 | 6.295594e+03 | 5.286758e+04 | 739.76%| unknown
 20.0s|     1 |     0 |  1132 |     - |   263M |   0 |  22k|  22k|  22k| 368 | 12 |   5 |   0 | 6.295594e+03 | 5.286758e+04 | 739.76%| unknown
 21.0s|     1 |     0 |  1143 |     - |   265M |   0 |  22k|  22k|  22k| 373 | 13 |   5 |   0 | 6.296984e+03 | 5.286758e+04 | 739.57%| unknown
 time | node  | left  |LP iter|LP it/n|mem/heur|mdpt |vars |cons |rows |cuts |sepa|confs|strbr|  dualbound   | primalbound  |  gap   | compl. 
 23.0s|     1 |     0 |  1164 |     - |   267M |   0 |  22k|  22k|  22k| 381 | 14 |   5 |   0 | 6.301886e+03 | 5.286758e+04 | 738.92%| unknown
 23.0s|     1 |     0 |  1179 |     - |   271M |   0 |  22k|  22k|  22k| 388 | 15 |   5 |   0 | 6.302288e+03 | 5.286758e+04 | 738.86%| unknown
 24.0s|     1 |     0 |  1190 |     - |   273M |   0 |  22k|  22k|  22k| 394 | 16 |   5 |   0 | 6.302753e+03 | 5.286758e+04 | 738.80%| unknown
 24.0s|     1 |     0 |  1196 |     - |   275M |   0 |  22k|  22k|  22k| 399 | 17 |   5 |   0 | 6.302753e+03 | 5.286758e+04 | 738.80%| unknown
 25.0s|     1 |     0 |  1211 |     - |   277M |   0 |  22k|  22k|  22k| 406 | 18 |   5 |   0 | 6.302753e+03 | 5.286758e+04 | 738.80%| unknown
 25.0s|     1 |     0 |  1249 |     - |   279M |   0 |  22k|  22k|  22k| 426 | 19 |   5 |   0 | 6.302753e+03 | 5.286758e+04 | 738.80%| unknown
 26.0s|     1 |     0 |  1292 |     - |   281M |   0 |  22k|  22k|  22k| 439 | 20 |   5 |   0 | 6.303217e+03 | 5.286758e+04 | 738.74%| unknown
 27.0s|     1 |     0 |  1302 |     - |   281M |   0 |  22k|  22k|  22k| 446 | 21 |   5 |   0 | 6.303217e+03 | 5.286758e+04 | 738.74%| unknown
 27.0s|     1 |     0 |  1305 |     - |   281M |   0 |  22k|  22k|  22k| 448 | 22 |   5 |   0 | 6.303217e+03 | 5.286758e+04 | 738.74%| unknown
 28.0s|     1 |     0 |  1309 |     - |   281M |   0 |  22k|  22k|  22k| 453 | 23 |   5 |   0 | 6.303217e+03 | 5.286758e+04 | 738.74%| unknown
 68.0s|     1 |     2 |  7945 |     - |   286M |   0 |  22k|  22k|  22k| 453 | 24 |   5 |  29 | 6.303576e+03 | 5.286758e+04 | 738.69%| unknown

SCIP Status        : solving was interrupted [time limit reached]
Solving Time (sec) : 600.00
Solving Nodes      : 46
Primal Bound       : +5.28675802842742e+04 (1 solutions)
Dual Bound         : +6.30580352630248e+03
Gap                : 738.40 %
Trying to solve problem with MTZ Solver Method...
Starting Solver, time limit setted to 10 minutes
Route:  [[0, 2], [1, 3], [2, 1], [3, 4], [4, 5], [5, 6], [6, 7], [7, 8], [8, 9], [9, 10], [10, 11], [11, 12], [12, 13], [13, 14], [14, 15], [15, 16], [16, 17], [17, 18], [18, 19], [19, 20], [20, 21], [21, 22], [22, 23], [23, 24], [24, 25], [25, 26], [26, 27], [27, 28], [28, 29], [29, 30], [30, 31], [31, 32], [32, 33], [33, 34], [34, 35], [35, 36], [36, 37], [37, 38], [38, 39], [39, 40], [40, 41], [41, 42], [42, 43], [43, 44], [44, 45], [45, 46], [46, 47], [47, 48], [48, 49], [49, 50], [50, 51], [51, 52], [52, 53], [53, 54], [54, 55], [55, 56], [56, 57], [57, 58], [58, 59], [59, 60], [60, 61], [61, 62], [62, 63], [63, 64], [64, 65], [65, 66], [66, 67], [67, 68], [68, 69], [69, 70], [70, 71], [71, 72], [72, 73], [73, 74], [74, 75], [75, 76], [76, 77], [77, 78], [78, 79], [79, 80], [80, 81], [81, 82], [82, 83], [83, 84], [84, 85], [85, 86], [86, 87], [87, 88], [88, 89], [89, 90], [90, 91], [91, 92], [92, 93], [93, 94], [94, 95], [95, 96], [96, 97], [97, 98], [98, 99], [99, 100], [100, 101], [101, 102], [102, 103], [103, 104], [104, 105], [105, 106], [106, 107], [107, 108], [108, 109], [109, 110], [110, 111], [111, 112], [112, 113], [113, 114], [114, 115], [115, 116], [116, 117], [117, 118], [118, 119], [119, 120], [120, 121], [121, 122], [122, 123], [123, 124], [124, 125], [125, 126], [126, 127], [127, 128], [128, 129], [129, 130], [130, 131], [131, 132], [132, 133], [133, 134], [134, 135], [135, 136], [136, 137], [137, 138], [138, 139], [139, 140], [140, 141], [141, 142], [142, 143], [143, 144], [144, 145], [145, 146], [146, 147], [147, 148], [148, 149], [149, 0]]
An Otimal Solution was found, yay!
Objective value: 52867.6
Problem solved in 11717 iterations
Problem solved in 46 nodes
Final Route Configuration succesfully created at:
data/routes/ch150.csv
